<instance format="XCSP3" type="CSP">
  <variables>
    <var id="x0"> 7 14 15 17 </var>
    <var id="x1"> 0 6 14 </var>
    <var id="x2"> 2 5..7 15 17 </var>
    <var id="x3"> 0 2 5..7 14 </var>
    <var id="x4"> 14 15 17 </var>
    <var id="x5"> 6 </var>
    <var id="x6"> 2 6 7 15 </var>
    <var id="x7"> 7 15 17 </var>
    <var id="x8"> 7 13..16 </var>
    <var id="x9"> 0 6 13 </var>
    <var id="x10"> 0 2 6 7 13 14 </var>
    <var id="x11"> 2 6 13 15 16 </var>
    <var id="x12"> 6 7 13 14 </var>
    <var id="x13"> 13..16 </var>
    <var id="x14"> 2 6 7 13 15 16 </var>
    <var id="x15"> 2 7 14 16 </var>
    <var id="x16"> 6 7 11 14 </var>
    <var id="x17"> 6 9 11 14 </var>
    <var id="x18"> 1 6 7 9 12 14 </var>
    <var id="x19"> 1 6 12 </var>
    <var id="x20"> 9 11 14 </var>
    <var id="x21"> 11 14 15 </var>
    <var id="x22"> 7 11 15 </var>
    <var id="x23"> 7 9 14 </var>
    <var id="x24"> 0 6 7 11 16 </var>
    <var id="x25"> 7 9 11 12 16 </var>
    <var id="x26"> 7 8 16 </var>
    <var id="x27"> 0 6 9 11 16 </var>
    <var id="x28"> 0 6 7 9 12 </var>
    <var id="x29"> 6 7 9 12 </var>
    <var id="x30"> 6..8 16 </var>
    <var id="x31"> 6 8 11 16 </var>
    <var id="x32"> 0 6 7 11 13 16 </var>
    <var id="x33"> 7 13 16 </var>
    <var id="x34"> 0 6 11 13 16 </var>
    <var id="x35"> 6 7 10 </var>
    <var id="x36"> 0 10 11 </var>
    <var id="x37"> 0 6 7 13 </var>
    <var id="x38"> 7 10 11 16 </var>
    <var id="x39"> 6 7 11 13 14 16 </var>
    <var id="x40"> 7 11..14 16 </var>
    <var id="x41"> 7 13 14 16 17 </var>
    <var id="x42"> 6 7 12..14 </var>
    <var id="x43"> 6 7 14 16 </var>
    <var id="x44"> 6 11 13 16 </var>
    <var id="x45"> 6 7 11..14 </var>
    <var id="x46"> 7 11 16 17 </var>
    <var id="x47"> 7 9 13 14 </var>
    <var id="x48"> 5..7 10 </var>
    <var id="x49"> 6 7 9 10 13 14 </var>
    <var id="x50"> 5 6 8 13 </var>
    <var id="x51"> 5..7 13 14 </var>
    <var id="x52"> 6..8 14 </var>
    <var id="x53"> 7 8 10 </var>
    <var id="x54"> 5 7 9 14 </var>
    <var id="x55"> 2 9 13 16 </var>
    <var id="x56"> 8 13 16 </var>
    <var id="x57"> 6 9 10 13 </var>
    <var id="x58"> 6 8 13 </var>
    <var id="x59"> 2 6 13 </var>
    <var id="x60"> 6 8 9 13 16 </var>
    <var id="x61"> 2 6 9 10 13 16 </var>
    <var id="x62"> 4 8 10 16 </var>
    <var id="x63"> 5 13 16 </var>
    <var id="x64"> 3 13 16 </var>
    <var id="x65"> 2 17 </var>
    <var id="x66"> 2 4 5 10 17 </var>
    <var id="x67"> 5 13 17 </var>
    <var id="x68"> 10 13 16 17 </var>
    <var id="x69"> 2 10 13 16 </var>
    <var id="x70"> 2 4 5 16 17 </var>
    <var id="x71"> 3 7 14 15 </var>
    <var id="x72"> 6 7 12 14 </var>
    <var id="x73"> 5..7 12 14 </var>
    <var id="x74"> 6 7 14 </var>
    <var id="x75"> 6 11 15 </var>
    <var id="x76"> 6 7 11 12 14 </var>
    <var id="x77"> 11 14 15 </var>
    <var id="x78"> 5 7 14 </var>
    <var id="x79"> 0 7 11 </var>
    <var id="x80"> 7 9 11 12 </var>
    <var id="x81"> 7 8 </var>
    <var id="x82"> 0 7 9 12 </var>
    <var id="x83"> 0 1 8 12 </var>
    <var id="x84"> 0 8..11 </var>
    <var id="x85"> 8 10 11 </var>
    <var id="x86"> 7 8 10..12 </var>
    <var id="x87"> 6 7 9 17 </var>
    <var id="x88"> 6 7 9 13 </var>
    <var id="x89"> 4 8 9 </var>
    <var id="x90"> 4 6..8 16 </var>
    <var id="x91"> 8 13 16 17 </var>
    <var as="x60" id="x92"/>
    <var id="x93"> 6 7 9 13 16 </var>
    <var id="x94"> 4 7 8 16 17 </var>
    <var id="x95"> 9 11 13 14 </var>
    <var as="x95" id="x96"/>
    <var id="x97"> 4 15 </var>
    <var id="x98"> 4 8 14 </var>
    <var id="x99"> 8 11 13 14 </var>
    <var id="x100"> 8 11 13..15 </var>
    <var id="x101"> 9 13 15 </var>
    <var id="x102"> 5 13 14 16 </var>
    <var id="x103"> 13 14 16 </var>
    <var id="x104"> 4 5 10 17 </var>
    <var id="x105"> 5 8 13 17 </var>
    <var id="x106"> 4 8 10 14 </var>
    <var id="x107"> 8 10 13 14 </var>
    <var id="x108"> 8 13 16 </var>
    <var id="x109"> 4 5 14 16 17 </var>
    <var id="x110"> 2 7 12..14 16 </var>
    <var id="x111"> 2 7 12 15 </var>
    <var id="x112"> 2 7 10 15 </var>
    <var id="x113"> 7 10 12..14 </var>
    <var id="x114"> 10 14 </var>
    <var id="x115"> 2 10 13 15 16 </var>
    <var as="x113" id="x116"/>
    <var id="x117"> 13 16 </var>
    <var id="x118"> 2 7 9 13 16 </var>
    <var id="x119"> 2 7 9 </var>
    <var id="x120"> 1 7 16 </var>
    <var id="x121"> 2 13 16 </var>
    <var id="x122"> 7 13 </var>
    <var id="x123"> 1 3 9 13 16 </var>
    <var id="x124"> 2 7 9 16 </var>
    <var id="x125"> 0 6 14 16 </var>
    <var id="x126"> 0 2 6 17 </var>
    <var id="x127"> 0 6 8 17 </var>
    <var id="x128"> 0 2 6 14 </var>
    <var id="x129"> 8 10 14 16 17 </var>
    <var id="x130"> 2 6 10 16 </var>
    <var id="x131"> 8 10 16 17 </var>
    <var id="x132"> 2 14 16 17 </var>
    <var id="x133"> 6 11 13 14 </var>
    <var id="x134"> 6 15 17 </var>
    <var id="x135"> 6 15 17 </var>
    <var id="x136"> 8 11 14 </var>
    <var id="x137"> 6 13 14 </var>
    <var id="x138"> 6 8 11 13 15 </var>
    <var id="x139"> 1 6 8 13 </var>
    <var id="x140"> 6 13 15 </var>
  </variables>
  <constraints>
    <group>
      <allDifferent> %... </allDifferent>
      <args> x0 x1 x2 x3 x4 x5 x6 x7 </args>
      <args> x8 x9 x10 x11 x12 x13 x14 x15 </args>
      <args> x16 x17 x18 x19 x20 x21 x22 x23 </args>
      <args> x24 x25 x26 x27 x28 x29 x30 x31 </args>
      <args> x32 x33 x34 x35 x36 x37 x38 </args>
      <args> x39 x40 x41 x42 x43 x44 x45 x46 </args>
      <args> x47 x48 x49 x50 x51 x52 x53 x54 </args>
      <args> x55 x56 x57 x58 x59 x60 x61 x62 </args>
      <args> x63 x64 x65 x66 x67 x68 x69 x70 </args>
      <args> x71 x72 x73 x74 x75 x76 x77 x78 </args>
      <args> x79 x80 x81 x82 x83 x84 x85 x86 </args>
      <args> x87 x88 x89 x90 x91 x92 x93 x94 </args>
      <args> x95 x96 x97 x98 x99 x100 x101 </args>
      <args> x102 x103 x104 x105 x106 x107 x108 x109 </args>
      <args> x110 x111 x112 x113 x114 x115 x116 x117 </args>
      <args> x118 x119 x120 x121 x122 x123 x124 </args>
      <args> x125 x126 x127 x128 x129 x130 x131 x132 </args>
      <args> x133 x134 x135 x136 x137 x138 x139 x140 </args>
      <args> x16 x24 x32 x39 x63 x79 x102 x133 </args>
      <args> x25 x40 x47 x55 x80 x95 x110 x118 </args>
      <args> x0 x8 x26 x33 x41 x56 x71 x81 </args>
      <args> x1 x17 x27 x34 x64 x96 x103 x125 </args>
      <args> x28 x65 x82 x87 x111 x119 x126 x134 </args>
      <args> x2 x35 x48 x66 x97 x104 x112 x135 </args>
      <args> x18 x29 x42 x49 x57 x72 x88 x113 </args>
      <args> x9 x19 x50 x58 x67 x83 x105 x127 </args>
      <args> x20 x36 x84 x89 x106 x114 x136 </args>
      <args> x3 x10 x37 x51 x59 x73 x128 x137 </args>
      <args> x30 x43 x52 x74 x90 x98 x120 </args>
      <args> x11 x31 x44 x75 x85 x115 x121 x138 </args>
      <args> x12 x45 x76 x86 x99 x107 x116 x122 </args>
      <args> x4 x13 x21 x68 x77 x91 x100 x129 </args>
      <args> x5 x60 x92 x108 x117 x123 x139 </args>
      <args> x6 x14 x61 x69 x93 x101 x130 x140 </args>
      <args> x7 x22 x38 x46 x53 x62 x94 x131 </args>
      <args> x15 x23 x54 x70 x78 x109 x124 x132 </args>
    </group>
  </constraints>
</instance>

